10J3M/DAT/10J3MULR-20.dat
10 3
8.2147 24.4462
0.9412 45.2392
34.8334 39.8066
40.7456 38.1659
24.7199 46.932
1.5938 8.6089
10.6715 34.9611
35.2749 6.1232
7.1336 36.1606
35.4309 35.623
105.3556