10J3M/SOL/10J3MULR-20.sol
solution status: optimal solution found
objective value:                              64.4539
x#1#1                               0.410770959338855 	(obj:0)
x#1#2                                0.28708292277204 	(obj:0)
x#1#3                               0.302146117889105 	(obj:0)
x#2#1                                               1 	(obj:0)
x#3#2                                               1 	(obj:0)
x#4#1                                               1 	(obj:0)
x#5#3                                               1 	(obj:0)
x#6#1                               0.257093279951786 	(obj:0)
x#6#3                               0.742906720048214 	(obj:0)
x#7#2                                               1 	(obj:0)
x#8#2                                               1 	(obj:0)
x#9#1                                               1 	(obj:0)
x#10#1                              0.728332425529283 	(obj:0)
x#10#2                              0.271667574470717 	(obj:0)
z                                             64.4539 	(obj:1)
